sat
(
  (define-fun C7_VM3 () Int
    0)
  (define-fun C4_VM9 () Int
    0)
  (define-fun C1_VM8 () Int
    0)
  (define-fun VM7Type () Int
    0)
  (define-fun C2_VM3 () Int
    0)
  (define-fun PriceProv6 () Int
    4400)
  (define-fun C1_VM3 () Int
    0)
  (define-fun C3_VM11 () Int
    0)
  (define-fun StorageProv11 () Int
    8001)
  (define-fun C2_VM9 () Int
    0)
  (define-fun C2_VM7 () Int
    0)
  (define-fun C3_VM2 () Int
    0)
  (define-fun C4_VM7 () Int
    0)
  (define-fun C7_VM7 () Int
    0)
  (define-fun C2_VM1 () Int
    0)
  (define-fun C3_VM4 () Int
    0)
  (define-fun C7_VM11 () Int
    0)
  (define-fun VM2Type () Int
    0)
  (define-fun C6_VM10 () Int
    0)
  (define-fun C10_VM7 () Int
    0)
  (define-fun StorageProv3 () Int
    8000)
  (define-fun PriceProv11 () Int
    0)
  (define-fun StorageProv4 () Int
    8000)
  (define-fun PriceProv9 () Int
    4400)
  (define-fun C1_VM10 () Int
    0)
  (define-fun C4_VM8 () Int
    0)
  (define-fun C8_VM5 () Int
    0)
  (define-fun C2_VM4 () Int
    1)
  (define-fun C3_VM10 () Int
    0)
  (define-fun C8_VM6 () Int
    1)
  (define-fun C6_VM7 () Int
    0)
  (define-fun PriceProv5 () Int
    0)
  (define-fun ProcProv8 () Int
    64)
  (define-fun StorageProv10 () Int
    8000)
  (define-fun PriceProv8 () Int
    4400)
  (define-fun C8_VM2 () Int
    0)
  (define-fun C7_VM4 () Int
    1)
  (define-fun C3_VM9 () Int
    0)
  (define-fun VM10Type () Int
    6)
  (define-fun C2_VM6 () Int
    0)
  (define-fun C6_VM5 () Int
    0)
  (define-fun C1_VM9 () Int
    0)
  (define-fun C6_VM8 () Int
    0)
  (define-fun C6_VM3 () Int
    0)
  (define-fun C10_VM10 () Int
    0)
  (define-fun C4_VM1 () Int
    0)
  (define-fun C6_VM1 () Int
    1)
  (define-fun C3_VM8 () Int
    1)
  (define-fun MemProv4 () Int
    256000)
  (define-fun StorageProv8 () Int
    8000)
  (define-fun C6_VM2 () Int
    0)
  (define-fun C1_VM11 () Int
    0)
  (define-fun MemProv11 () Int
    255999)
  (define-fun ProcProv1 () Int
    64)
  (define-fun C4_VM11 () Int
    0)
  (define-fun VM4Type () Int
    6)
  (define-fun C8_VM4 () Int
    1)
  (define-fun C10_VM9 () Int
    1)
  (define-fun PriceProv4 () Int
    4400)
  (define-fun C1_VM4 () Int
    0)
  (define-fun C10_VM5 () Int
    0)
  (define-fun VM9Type () Int
    6)
  (define-fun StorageProv2 () Int
    12000)
  (define-fun C4_VM3 () Int
    0)
  (define-fun C8_VM8 () Int
    1)
  (define-fun MemProv9 () Int
    256000)
  (define-fun C3_VM5 () Int
    0)
  (define-fun C4_VM4 () Int
    0)
  (define-fun C8_VM7 () Int
    0)
  (define-fun C10_VM3 () Int
    0)
  (define-fun MemProv7 () Int
    60999)
  (define-fun C10_VM6 () Int
    0)
  (define-fun VM11Type () Int
    0)
  (define-fun C7_VM9 () Int
    0)
  (define-fun PriceProv2 () Int
    0)
  (define-fun C8_VM1 () Int
    1)
  (define-fun C7_VM5 () Int
    0)
  (define-fun C3_VM3 () Int
    0)
  (define-fun StorageProv5 () Int
    24001)
  (define-fun C7_VM2 () Int
    0)
  (define-fun MemProv6 () Int
    256000)
  (define-fun C2_VM8 () Int
    0)
  (define-fun C4_VM5 () Int
    0)
  (define-fun PriceProv7 () Int
    0)
  (define-fun C1_VM1 () Int
    1)
  (define-fun VM1Type () Int
    6)
  (define-fun C1_VM6 () Int
    0)
  (define-fun C4_VM2 () Int
    0)
  (define-fun C10_VM8 () Int
    0)
  (define-fun VM6Type () Int
    6)
  (define-fun PriceProv10 () Int
    4400)
  (define-fun PriceProv3 () Int
    0)
  (define-fun C2_VM5 () Int
    0)
  (define-fun C4_VM6 () Int
    1)
  (define-fun PriceProv1 () Int
    4400)
  (define-fun ProcProv5 () Int
    63)
  (define-fun MemProv8 () Int
    256000)
  (define-fun C2_VM10 () Int
    1)
  (define-fun C6_VM9 () Int
    0)
  (define-fun StorageProv6 () Int
    8000)
  (define-fun VM5Type () Int
    0)
  (define-fun C1_VM2 () Int
    0)
  (define-fun StorageProv1 () Int
    8000)
  (define-fun C8_VM9 () Int
    1)
  (define-fun C4_VM10 () Int
    0)
  (define-fun C8_VM3 () Int
    0)
  (define-fun C8_VM11 () Int
    0)
  (define-fun ProcProv3 () Int
    64)
  (define-fun C6_VM6 () Int
    0)
  (define-fun StorageProv7 () Int
    2999)
  (define-fun ProcProv9 () Int
    64)
  (define-fun C8_VM10 () Int
    1)
  (define-fun VM3Type () Int
    0)
  (define-fun C10_VM11 () Int
    0)
  (define-fun MemProv2 () Int
    122000)
  (define-fun MemProv5 () Int
    116999)
  (define-fun C3_VM6 () Int
    0)
  (define-fun ProcProv4 () Int
    64)
  (define-fun C7_VM8 () Int
    0)
  (define-fun ProcProv11 () Int
    18)
  (define-fun C2_VM11 () Int
    0)
  (define-fun MemProv1 () Int
    256000)
  (define-fun MemProv10 () Int
    256000)
  (define-fun C1_VM5 () Int
    0)
  (define-fun C2_VM2 () Int
    0)
  (define-fun C1_VM7 () Int
    0)
  (define-fun C3_VM7 () Int
    0)
  (define-fun MemProv3 () Int
    256000)
  (define-fun ProcProv7 () Int
    65)
  (define-fun C10_VM4 () Int
    0)
  (define-fun C7_VM6 () Int
    0)
  (define-fun ProcProv10 () Int
    64)
  (define-fun ProcProv2 () Int
    18)
  (define-fun C10_VM2 () Int
    0)
  (define-fun C6_VM4 () Int
    0)
  (define-fun ProcProv6 () Int
    64)
  (define-fun VM8Type () Int
    6)
  (define-fun C7_VM10 () Int
    0)
  (define-fun C3_VM1 () Int
    0)
  (define-fun C6_VM11 () Int
    0)
  (define-fun StorageProv9 () Int
    8000)
  (define-fun C9_VM6 () Int
    1)
  (define-fun C9_VM11 () Int
    0)
  (define-fun C5_VM10 () Int
    1)
  (define-fun C9_VM5 () Int
    0)
  (define-fun C5_VM8 () Int
    1)
  (define-fun C9_VM7 () Int
    0)
  (define-fun C5_VM4 () Int
    1)
  (define-fun C5_VM11 () Int
    0)
  (define-fun C9_VM3 () Int
    0)
  (define-fun C9_VM8 () Int
    1)
  (define-fun C5_VM1 () Int
    1)
  (define-fun C5_VM7 () Int
    0)
  (define-fun C5_VM5 () Int
    0)
  (define-fun C9_VM1 () Int
    1)
  (define-fun C9_VM10 () Int
    1)
  (define-fun C5_VM9 () Int
    1)
  (define-fun C9_VM9 () Int
    1)
  (define-fun C5_VM6 () Int
    1)
  (define-fun C5_VM3 () Int
    0)
  (define-fun C7_VM1 () Int
    0)
  (define-fun C9_VM4 () Int
    1)
  (define-fun C5_VM2 () Int
    0)
  (define-fun C10_VM1 () Int
    0)
  (define-fun C9_VM2 () Int
    0)
)
(objectives
 ((+ 0
   PriceProv1
   PriceProv2
   PriceProv3
   PriceProv4
   PriceProv5
   PriceProv6
   PriceProv7
   PriceProv8
   PriceProv9
   PriceProv10
   PriceProv11) 26400)
)
(:added-eqs                   9677536
 :arith-eq-adapter            42920
 :arith-bound-propagations-lp 2608231
 :arith-conflicts             1322
 :arith-diseq                 37676776
 :arith-fixed-eqs             51772
 :arith-lower                 22119783
 :arith-make-feasible         429402
 :arith-max-columns           442
 :arith-max-rows              35
 :arith-upper                 53815482
 :binary-propagations         79288861
 :bv-bit2core                 111666
 :bv-dynamic-diseqs           35062444
 :bv->core-eq                 753
 :conflicts                   189650
 :decisions                   661864
 :del-clause                  37043765
 :final-checks                105
 :max-memory                  305.36
 :memory                      299.36
 :minimized-lits              30880042
 :mk-bool-var                 1086627
 :mk-clause                   37045933
 :mk-clause-binary            16215
 :num-allocs                  4095775874
 :num-checks                  81
 :pb-conflicts                4893
 :pb-predicates               6
 :pb-propagations             70601
 :pb-resolves                 1104
 :propagations                245916173
 :restarts                    642
 :rlimit-count                981804406
 :solve-eqs-elim-vars         24
 :solve-eqs-steps             62
 :time                        118.00
 :total-time                  118.01)
